# Objective value = 297.792955747062
x[0] 0
x[1] 1
x[2] 0
x[3] 1
x[4] 1
x[5] 1
x[6] 0
x[7] 1
x[8] 0
x[9] 0
x[10] 0
x[11] 0
x[12] 1
x[13] 1
x[14] 1
x[15] 1
x[16] 0
x[17] 1
x[18] 0
x[19] 0
x[20] 1
x[21] 0
x[22] 1
x[23] 0
x[24] 1
x[25] 1
x[26] 0
x[27] 0
x[28] 0
x[29] 1
x[30] 0
x[31] 1
x[32] 0
x[33] 1
x[34] 1
x[35] 0
x[36] 1
x[37] 1
x[38] 1
x[39] 1
x[40] 0
x[41] 0
x[42] 0
x[43] 0
x[44] 1
x[45] 1
x[46] 1
x[47] 0
x[48] 0
x[49] 1
x[50] 0
x[51] 1
x[52] 0
x[53] 0
x[54] 0
x[55] 1
x[56] 0
x[57] 0
x[58] 1
x[59] 0
x[60] 1
x[61] 1
x[62] 1
x[63] 0
x[64] 1
x[65] 1
x[66] 1
x[67] 1
x[68] 0
x[69] 1
x[70] 1
x[71] 0
x[72] 1
x[73] 0
x[74] 1
x[75] 0
x[76] 0
x[77] 0
x[78] 0
x[79] 0
x[80] 0
x[81] 1
x[82] 1
x[83] 0
x[84] 0
x[85] 1
x[86] 0
x[87] 1
x[88] 0
x[89] 0
x[90] 0
x[91] 1
x[92] 0
x[93] 1
x[94] 1
x[95] 0
x[96] 1
x[97] 0
x[98] 1
x[99] 1
x[100] 1
x[101] 1
x[102] 0
x[103] 0
x[104] 0
x[105] 1
x[106] 1
x[107] 1
x[108] 1
x[109] 1
x[110] 0
x[111] 1
x[112] 1
x[113] 1
x[114] 0
x[115] 0
x[116] 0
x[117] 1
x[118] 1
x[119] 1
x[120] 1
x[121] 1
x[122] 0
x[123] 1
x[124] 1
x[125] 1
x[126] 1
x[127] 1
x[128] 0
x[129] 1
x[130] 1
x[131] 1
x[132] 0
x[133] 0
x[134] 0
x[135] 1
x[136] 1
x[137] 1
x[138] 1
x[139] 1
x[140] 0
x[141] 0
x[142] 0
x[143] 0
x[144] 0
x[145] 0
x[146] 0
x[147] 0
x[148] 1
x[149] 1
x[150] 1
x[151] 0
x[152] 0
x[153] 0
x[154] 0
x[155] 1
x[156] 0
x[157] 0
x[158] 0
x[159] 0
x[160] 1
x[161] 0
x[162] 1
x[163] 1
x[164] 0
x[165] 0
x[166] 0
x[167] 1
x[168] 0
x[169] 0
x[170] 0
x[171] 1
x[172] 0
x[173] 0
x[174] 0
x[175] 1
x[176] 0
x[177] 0
x[178] 0
x[179] 0
x[180] 1
x[181] 1
x[182] 0
x[183] 1
x[184] 0
x[185] 1
x[186] 1
x[187] 1
x[188] 0
x[189] 0
x[190] 0
x[191] 1
x[192] 0
x[193] 0
x[194] 1
x[195] 1
x[196] 0
x[197] 1
x[198] 0
x[199] 1
x[200] 1
x[201] 1
x[202] 0
x[203] 1
x[204] 0
x[205] 1
x[206] 1
x[207] 0
x[208] 1
x[209] 0
x[210] 1
x[211] 1
x[212] 1
x[213] 0
x[214] 0
x[215] 0
x[216] 0
x[217] 1
x[218] 0
x[219] 0
x[220] 0
x[221] 0
x[222] 0
x[223] 1
x[224] 1
x[225] 0
x[226] 1
x[227] 0
x[228] 0
x[229] 0
x[230] 0
x[231] 0
x[232] 1
x[233] 0
x[234] 0
x[235] 1
x[236] 1
x[237] 0
x[238] 0
x[239] 0
x[240] 0
x[241] 0
x[242] 1
x[243] 1
x[244] 1
x[245] 0
x[246] 0
x[247] 1
x[248] 1
x[249] 1
x[250] 0
x[251] 0
x[252] 1
x[253] 0
x[254] 1
x[255] 1
x[256] 1
x[257] 1
x[258] 0
x[259] 1
x[260] 0
x[261] 0
x[262] 0
x[263] 0
x[264] 1
x[265] 0
x[266] 0
x[267] 1
x[268] 1
x[269] 0
x[270] 0
x[271] 1
x[272] 0
x[273] 1
x[274] 1
x[275] 1
x[276] 1
x[277] 1
x[278] 0
x[279] 0
x[280] 1
x[281] 1
x[282] 1
x[283] 1
x[284] 0
x[285] 1
x[286] 1
x[287] 1
x[288] 0
x[289] 0
x[290] 1
x[291] 1
x[292] 1
x[293] 1
x[294] 1
x[295] 1
x[296] 0
x[297] 0
x[298] 1
x[299] 1
x[300] 0
x[301] 0
x[302] 0
x[303] 0
x[304] 1
x[305] 1
x[306] 1
x[307] 1
x[308] 1
x[309] 0
x[310] 1
x[311] 0
x[312] 0
x[313] 1
x[314] 0
x[315] 1
x[316] 1
x[317] 0
x[318] 1
x[319] 1
x[320] 1
x[321] 0
x[322] 0
x[323] 1
x[324] 1
x[325] 1
x[326] 0
x[327] 1
x[328] 1
x[329] 1
x[330] 0
x[331] 0
x[332] 0
x[333] 1
x[334] 0
x[335] 1
x[336] 1
x[337] 1
x[338] 0
x[339] 1
x[340] 1
x[341] 0
x[342] 1
x[343] 0
x[344] 0
x[345] 0
x[346] 0
x[347] 0
x[348] 0
x[349] 0
x[350] 1
x[351] 0
x[352] 0
x[353] 1
x[354] 1
x[355] 0
x[356] 1
x[357] 1
x[358] 0
x[359] 1
x[360] 0
x[361] 1
x[362] 1
x[363] 0
x[364] 0
x[365] 1
x[366] 0
x[367] 0
x[368] 0
x[369] 1
x[370] 1
x[371] 1
x[372] 1
x[373] 0
x[374] 0
x[375] 1
x[376] 0
x[377] 0
x[378] 0
x[379] 1
x[380] 1
x[381] 0
x[382] 1
x[383] 0
x[384] 1
x[385] 0
x[386] 1
x[387] 1
x[388] 1
x[389] 0
x[390] 1
x[391] 1
x[392] 1
x[393] 0
x[394] 0
x[395] 0
x[396] 0
x[397] 1
x[398] 0
x[399] 1
x[400] 1
x[401] 0
x[402] 0
x[403] 1
x[404] 0
x[405] 0
x[406] 0
x[407] 1
x[408] 0
x[409] 1
x[410] 1
x[411] 1
x[412] 0
x[413] 1
x[414] 0
x[415] 1
x[416] 0
x[417] 0
x[418] 1
x[419] 1
x[420] 0
x[421] 0
x[422] 0
x[423] 1
x[424] 1
x[425] 0
x[426] 1
x[427] 0
x[428] 0
x[429] 1
x[430] 0
x[431] 0
x[432] 0
x[433] 1
x[434] 0
x[435] 1
x[436] 1
x[437] 0
x[438] 1
x[439] 1
x[440] 0
x[441] 0
x[442] 0
x[443] 1
x[444] 1
x[445] 1
x[446] 0
x[447] 0
x[448] 0
x[449] 1
x[450] 1
x[451] 1
x[452] 1
x[453] 0
x[454] 1
x[455] 1
x[456] 0
x[457] 0
x[458] 1
x[459] 1
x[460] 0
x[461] 1
x[462] 1
x[463] 1
x[464] 0
x[465] 0
x[466] 0
x[467] 1
x[468] 0
x[469] 1
x[470] 0
x[471] 1
x[472] 1
x[473] 1
x[474] 1
x[475] 0
x[476] 0
x[477] 0
x[478] 1
x[479] 0
x[480] 1
x[481] 0
x[482] 0
x[483] 0
x[484] 1
x[485] 1
x[486] 1
x[487] 1
x[488] 0
x[489] 1
x[490] 0
x[491] 1
x[492] 0
x[493] 1
x[494] 0
x[495] 0
x[496] 0
x[497] 1
x[498] 1
x[499] 0
x[500] 0
x[501] 0
x[502] 0
x[503] 1
x[504] 1
x[505] 1
x[506] 0
x[507] 1
x[508] 1
x[509] 1
x[510] 1
x[511] 0
x[512] 1
x[513] 0
x[514] 1
x[515] 1
x[516] 0
x[517] 0
x[518] 1
x[519] 0
x[520] 0
x[521] 0
x[522] 1
x[523] 1
x[524] 0
x[525] 1
x[526] 1
x[527] 1
x[528] 0
x[529] 0
x[530] 1
x[531] 0
x[532] 1
x[533] 1
x[534] 1
x[535] 1
x[536] 1
x[537] 0
x[538] 1
x[539] 1
x[540] 1
x[541] 1
x[542] 1
x[543] 1
x[544] 0
x[545] 0
x[546] 0
x[547] 0
x[548] 1
x[549] 0
x[550] 1
x[551] 0
x[552] 1
x[553] 1
x[554] 1
x[555] 0
x[556] 0
x[557] 0
x[558] 1
x[559] 1
x[560] 1
x[561] 0
x[562] 0
x[563] 1
x[564] 0
x[565] 1
x[566] 0
x[567] 1
x[568] 0
x[569] 0
x[570] 0
x[571] 0
x[572] 0
x[573] 1
x[574] 0
x[575] 1
x[576] 0
x[577] 1
x[578] 0
x[579] 1
x[580] 0
x[581] 0
x[582] 0
x[583] 1
x[584] 1
x[585] 1
x[586] 0
x[587] 0
x[588] 1
x[589] 0
x[590] 0
x[591] 1
x[592] 1
x[593] 0
x[594] 1
x[595] 0
x[596] 0
x[597] 0
x[598] 0
x[599] 1
x[600] 1
x[601] 0
x[602] 0
x[603] 0
x[604] 1
x[605] 0
x[606] 1
x[607] 1
x[608] 1
x[609] 0
x[610] 0
x[611] 0
x[612] 0
x[613] 1
x[614] 0
x[615] 1
x[616] 1
x[617] 1
x[618] 0
x[619] 0
x[620] 0
x[621] 1
x[622] 1
x[623] 0
x[624] 1
x[625] 0
x[626] 1
x[627] 0
x[628] 0
x[629] 1
x[630] 1
x[631] 0
x[632] 1
x[633] 0
x[634] 0
x[635] 0
x[636] 0
x[637] 1
x[638] 0
x[639] 0
x[640] 0
x[641] 0
x[642] 0
x[643] 1
x[644] 0
x[645] 0
x[646] 1
x[647] 0
x[648] 0
x[649] 1
x[650] 1
x[651] 0
x[652] 1
x[653] 0
x[654] 1
x[655] 1
x[656] 0
x[657] 1
x[658] 0
x[659] 1
x[660] 1
x[661] 0
x[662] 1
x[663] 1
x[664] 0
x[665] 1
x[666] 0
x[667] 1
x[668] 1
x[669] 1
x[670] 0
x[671] 0
x[672] 0
x[673] 0
x[674] 0
x[675] 1
x[676] 1
x[677] 0
x[678] 0
x[679] 1
x[680] 0
x[681] 1
x[682] 0
x[683] 0
x[684] 1
x[685] 0
x[686] 0
x[687] 1
x[688] 0
x[689] 0
x[690] 1
x[691] 0
x[692] 1
x[693] 0
x[694] 0
x[695] 0
x[696] 1
x[697] 1
x[698] 1
x[699] 0
x[700] 0
x[701] 1
x[702] 1
x[703] 0
x[704] 0
x[705] 1
x[706] 0
x[707] 1
x[708] 0
x[709] 1
x[710] 0
x[711] 0
x[712] 0
x[713] 1
x[714] 1
x[715] 1
x[716] 0
x[717] 1
x[718] 1
x[719] 0
x[720] 1
x[721] 1
x[722] 1
x[723] 0
x[724] 1
x[725] 0
x[726] 0
x[727] 0
x[728] 1
x[729] 1
x[730] 0
x[731] 1
x[732] 1
x[733] 1
x[734] 1
x[735] 0
x[736] 0
x[737] 0
x[738] 1
x[739] 1
x[740] 1
x[741] 1
x[742] 0
x[743] 0
x[744] 0
x[745] 1
x[746] 1
x[747] 1
x[748] 1
x[749] 0
x[750] 0
x[751] 1
x[752] 1
x[753] 1
x[754] 1
x[755] 0
x[756] 1
x[757] 1
x[758] 0
x[759] 0
x[760] 1
x[761] 1
x[762] 1
x[763] 0
x[764] 0
x[765] 1
x[766] 1
x[767] 0
x[768] 0
x[769] 0
x[770] 1
x[771] 1
x[772] 1
x[773] 0
x[774] 0
x[775] 1
x[776] 1
x[777] 1
x[778] 0
x[779] 0
x[780] 0
x[781] 0
x[782] 0
x[783] 1
x[784] 0
x[785] 0
x[786] 1
x[787] 0
x[788] 0
x[789] 1
x[790] 1
x[791] 1
x[792] 0
x[793] 1
x[794] 1
x[795] 1
x[796] 1
x[797] 0
x[798] 1
x[799] 0
x[800] 1
x[801] 0
x[802] 1
x[803] 0
x[804] 1
x[805] 0
x[806] 0
x[807] 1
x[808] 0
x[809] 1
x[810] 0
x[811] 1
x[812] 0
x[813] 0
x[814] 1
x[815] 0
x[816] 0
x[817] 0
x[818] 0
x[819] 0
x[820] 0
x[821] 1
x[822] 1
x[823] 1
x[824] 0
x[825] 1
x[826] 1
x[827] 1
x[828] 1
x[829] 1
x[830] 1
x[831] 0
x[832] 0
x[833] 1
x[834] 0
x[835] 0
x[836] 1
x[837] 0
x[838] 0
x[839] 0
x[840] 1
x[841] 0
x[842] 1
x[843] 1
x[844] 0
x[845] 1
x[846] 1
x[847] 1
x[848] 1
x[849] 1
x[850] 0
x[851] 0
x[852] 1
x[853] 1
x[854] 1
x[855] 0
x[856] 0
x[857] 0
x[858] 1
x[859] 0
x[860] 1
x[861] 1
x[862] 1
x[863] 0
x[864] 0
x[865] 0
x[866] 0
x[867] 0
x[868] 0
x[869] 0
x[870] 1
x[871] 0
x[872] 1
x[873] 0
x[874] 0
x[875] 0
x[876] 0
x[877] 1
x[878] 1
x[879] 1
x[880] 1
x[881] 0
x[882] 0
x[883] 1
x[884] 0
x[885] 0
x[886] 0
x[887] 0
x[888] 0
x[889] 0
x[890] 1
x[891] 0
x[892] 0
x[893] 1
x[894] 0
x[895] 1
x[896] 1
x[897] 0
x[898] 1
x[899] 1
x[900] 1
x[901] 0
x[902] 0
x[903] 0
x[904] 0
x[905] 1
x[906] 0
x[907] 1
x[908] 0
x[909] 1
x[910] 1
x[911] 1
x[912] 1
x[913] 0
x[914] 0
x[915] 1
x[916] 1
x[917] 0
x[918] 1
x[919] 1
x[920] 0
x[921] 1
x[922] 0
x[923] 0
x[924] 0
x[925] 0
x[926] 1
x[927] 0
x[928] 0
x[929] 0
x[930] 1
x[931] 0
x[932] 1
x[933] 0
x[934] 0
x[935] 1
x[936] 1
x[937] 1
x[938] 1
x[939] 0
x[940] 0
x[941] 1
x[942] 0
x[943] 0
x[944] 0
x[945] 0
x[946] 0
x[947] 1
x[948] 0
x[949] 0
x[950] 1
x[951] 0
x[952] 1
x[953] 0
x[954] 0
x[955] 0
x[956] 0
x[957] 0
x[958] 1
x[959] 0
x[960] 1
x[961] 1
x[962] 0
x[963] 0
x[964] 0
x[965] 1
x[966] 0
x[967] 1
x[968] 0
x[969] 1
x[970] 1
x[971] 1
x[972] 0
x[973] 0
x[974] 1
x[975] 1
x[976] 1
x[977] 1
x[978] 0
x[979] 0
x[980] 1
x[981] 0
x[982] 0
x[983] 0
x[984] 0
x[985] 0
x[986] 1
x[987] 0
x[988] 0
x[989] 0
x[990] 0
x[991] 1
x[992] 0
x[993] 0
x[994] 0
x[995] 0
x[996] 0
x[997] 1
x[998] 1
x[999] 1
